NAME: cuum900.tsp
TYPE: TSP
COMMENT: User-generated TSP file
DIMENSION: 900
EDGE_WEIGHT_TYPE: EUC_2D
NODE_COORD_SECTION
1 300.0 298.0
2 440.0 230.0
3 481.0 249.0
4 782.0 591.0
5 559.0 628.0
6 480.0 821.0
7 243.0 659.0
8 233.0 307.0
9 479.0 563.0
10 605.0 859.0
11 519.0 894.0
12 364.0 302.0
13 35.0 286.0
14 707.0 811.0
15 19.0 479.0
16 46.0 674.0
17 824.0 120.0
18 261.0 797.0
19 463.0 469.0
20 133.0 245.0
21 723.0 144.0
22 158.0 505.0
23 247.0 602.0
24 634.0 848.0
25 316.0 418.0
26 164.0 585.0
27 556.0 375.0
28 821.0 548.0
29 880.0 335.0
30 599.0 584.0
31 294.0 164.0
32 819.0 588.0
33 257.0 203.0
34 2.0 259.0
35 693.0 582.0
36 422.0 152.0
37 619.0 82.0
38 268.0 397.0
39 770.0 500.0
40 189.0 308.0
41 759.0 37.0
42 332.0 806.0
43 239.0 188.0
44 226.0 617.0
45 310.0 630.0
46 814.0 402.0
47 615.0 657.0
48 298.0 646.0
49 769.0 201.0
50 82.0 427.0
51 605.0 661.0
52 852.0 104.0
53 345.0 16.0
54 716.0 280.0
55 510.0 241.0
56 404.0 432.0
57 721.0 798.0
58 506.0 231.0
59 263.0 825.0
60 312.0 835.0
61 101.0 802.0
62 676.0 326.0
63 593.0 762.0
64 33.0 458.0
65 196.0 99.0
66 283.0 374.0
67 548.0 768.0
68 819.0 886.0
69 804.0 122.0
70 12.0 283.0
71 678.0 315.0
72 722.0 468.0
73 857.0 389.0
74 777.0 229.0
75 582.0 575.0
76 368.0 145.0
77 247.0 398.0
78 603.0 794.0
79 580.0 867.0
80 735.0 651.0
81 261.0 764.0
82 158.0 131.0
83 724.0 802.0
84 667.0 437.0
85 876.0 596.0
86 526.0 423.0
87 741.0 826.0
88 238.0 644.0
89 56.0 220.0
90 31.0 59.0
91 577.0 878.0
92 711.0 82.0
93 85.0 203.0
94 313.0 242.0
95 665.0 640.0
96 334.0 684.0
97 741.0 558.0
98 541.0 383.0
99 821.0 132.0
100 778.0 243.0
101 252.0 325.0
102 399.0 506.0
103 772.0 574.0
104 629.0 420.0
105 124.0 181.0
106 2.0 612.0
107 199.0 892.0
108 725.0 52.0
109 9.0 871.0
110 48.0 459.0
111 359.0 725.0
112 340.0 374.0
113 375.0 645.0
114 700.0 345.0
115 482.0 810.0
116 694.0 748.0
117 813.0 574.0
118 15.0 17.0
119 810.0 264.0
120 281.0 445.0
121 330.0 868.0
122 429.0 273.0
123 14.0 510.0
124 379.0 160.0
125 90.0 472.0
126 608.0 874.0
127 369.0 28.0
128 444.0 701.0
129 358.0 690.0
130 753.0 257.0
131 848.0 638.0
132 511.0 145.0
133 437.0 805.0
134 503.0 397.0
135 67.0 746.0
136 746.0 128.0
137 154.0 550.0
138 433.0 377.0
139 100.0 200.0
140 212.0 217.0
141 528.0 686.0
142 328.0 766.0
143 575.0 318.0
144 151.0 533.0
145 63.0 33.0
146 291.0 493.0
147 143.0 388.0
148 462.0 750.0
149 674.0 232.0
150 391.0 867.0
151 473.0 702.0
152 20.0 647.0
153 347.0 40.0
154 823.0 847.0
155 470.0 784.0
156 392.0 184.0
157 463.0 717.0
158 541.0 603.0
159 355.0 833.0
160 171.0 456.0
161 602.0 649.0
162 663.0 159.0
163 676.0 299.0
164 873.0 768.0
165 596.0 892.0
166 447.0 268.0
167 424.0 790.0
168 736.0 101.0
169 461.0 25.0
170 133.0 637.0
171 565.0 827.0
172 209.0 127.0
173 867.0 207.0
174 353.0 675.0
175 470.0 131.0
176 656.0 159.0
177 556.0 609.0
178 364.0 440.0
179 384.0 402.0
180 747.0 75.0
181 861.0 584.0
182 149.0 334.0
183 496.0 422.0
184 425.0 321.0
185 135.0 666.0
186 484.0 165.0
187 589.0 818.0
188 849.0 739.0
189 664.0 330.0
190 503.0 168.0
191 148.0 420.0
192 293.0 729.0
193 456.0 732.0
194 142.0 426.0
195 209.0 22.0
196 361.0 527.0
197 774.0 36.0
198 768.0 153.0
199 716.0 339.0
200 540.0 490.0
201 389.0 789.0
202 360.0 196.0
203 826.0 842.0
204 402.0 371.0
205 624.0 569.0
206 681.0 493.0
207 775.0 641.0
208 861.0 438.0
209 745.0 217.0
210 658.0 358.0
211 485.0 784.0
212 589.0 690.0
213 207.0 482.0
214 439.0 578.0
215 186.0 46.0
216 543.0 293.0
217 92.0 277.0
218 762.0 45.0
219 722.0 458.0
220 684.0 90.0
221 109.0 484.0
222 169.0 851.0
223 807.0 750.0
224 515.0 637.0
225 586.0 136.0
226 724.0 568.0
227 527.0 496.0
228 704.0 400.0
229 358.0 253.0
230 716.0 126.0
231 284.0 106.0
232 709.0 266.0
233 283.0 467.0
234 833.0 836.0
235 481.0 514.0
236 349.0 700.0
237 278.0 660.0
238 514.0 728.0
239 28.0 215.0
240 465.0 209.0
241 789.0 361.0
242 117.0 453.0
243 599.0 25.0
244 425.0 25.0
245 568.0 200.0
246 617.0 837.0
247 99.0 805.0
248 6.0 807.0
249 1.0 862.0
250 472.0 814.0
251 849.0 43.0
252 325.0 369.0
253 877.0 616.0
254 80.0 484.0
255 433.0 810.0
256 573.0 576.0
257 503.0 854.0
258 487.0 838.0
259 205.0 516.0
260 521.0 188.0
261 129.0 215.0
262 274.0 60.0
263 626.0 657.0
264 822.0 471.0
265 651.0 610.0
266 24.0 56.0
267 125.0 728.0
268 292.0 45.0
269 290.0 369.0
270 211.0 224.0
271 524.0 281.0
272 598.0 454.0
273 152.0 787.0
274 231.0 632.0
275 883.0 565.0
276 511.0 3.0
277 586.0 626.0
278 229.0 760.0
279 638.0 823.0
280 894.0 248.0
281 210.0 642.0
282 561.0 409.0
283 241.0 87.0
284 122.0 610.0
285 672.0 243.0
286 50.0 342.0
287 867.0 260.0
288 857.0 185.0
289 441.0 594.0
290 758.0 373.0
291 446.0 174.0
292 276.0 462.0
293 62.0 271.0
294 193.0 450.0
295 440.0 240.0
296 77.0 76.0
297 881.0 502.0
298 854.0 16.0
299 81.0 136.0
300 570.0 129.0
301 122.0 571.0
302 467.0 197.0
303 56.0 458.0
304 458.0 704.0
305 315.0 135.0
306 419.0 712.0
307 285.0 281.0
308 365.0 483.0
309 439.0 644.0
310 484.0 439.0
311 385.0 156.0
312 797.0 634.0
313 142.0 599.0
314 604.0 114.0
315 141.0 833.0
316 479.0 61.0
317 297.0 263.0
318 377.0 183.0
319 416.0 337.0
320 136.0 418.0
321 151.0 870.0
322 823.0 847.0
323 127.0 885.0
324 332.0 714.0
325 36.0 636.0
326 174.0 231.0
327 564.0 351.0
328 410.0 350.0
329 385.0 757.0
330 381.0 629.0
331 666.0 251.0
332 558.0 4.0
333 160.0 427.0
334 600.0 500.0
335 373.0 722.0
336 897.0 693.0
337 553.0 276.0
338 69.0 889.0
339 88.0 238.0
340 837.0 159.0
341 779.0 367.0
342 230.0 228.0
343 89.0 435.0
344 529.0 683.0
345 126.0 429.0
346 814.0 758.0
347 19.0 348.0
348 607.0 486.0
349 175.0 814.0
350 825.0 37.0
351 736.0 868.0
352 390.0 82.0
353 228.0 182.0
354 38.0 691.0
355 610.0 690.0
356 396.0 463.0
357 699.0 25.0
358 242.0 569.0
359 256.0 183.0
360 717.0 206.0
361 740.0 892.0
362 250.0 25.0
363 758.0 362.0
364 875.0 449.0
365 747.0 755.0
366 505.0 473.0
367 623.0 624.0
368 761.0 681.0
369 799.0 86.0
370 180.0 250.0
371 357.0 188.0
372 93.0 205.0
373 389.0 886.0
374 297.0 786.0
375 612.0 285.0
376 675.0 661.0
377 667.0 313.0
378 327.0 647.0
379 603.0 602.0
380 872.0 68.0
381 167.0 697.0
382 363.0 104.0
383 724.0 58.0
384 526.0 299.0
385 270.0 620.0
386 786.0 627.0
387 644.0 152.0
388 223.0 654.0
389 586.0 818.0
390 229.0 726.0
391 250.0 82.0
392 852.0 281.0
393 708.0 200.0
394 841.0 148.0
395 138.0 448.0
396 70.0 787.0
397 363.0 732.0
398 667.0 368.0
399 792.0 47.0
400 701.0 748.0
401 49.0 735.0
402 249.0 715.0
403 186.0 193.0
404 525.0 588.0
405 680.0 188.0
406 25.0 548.0
407 446.0 356.0
408 564.0 581.0
409 591.0 881.0
410 660.0 653.0
411 658.0 205.0
412 521.0 371.0
413 867.0 235.0
414 473.0 570.0
415 70.0 606.0
416 464.0 692.0
417 398.0 467.0
418 260.0 840.0
419 231.0 875.0
420 163.0 416.0
421 384.0 743.0
422 868.0 841.0
423 479.0 496.0
424 335.0 413.0
425 465.0 728.0
426 56.0 872.0
427 260.0 752.0
428 626.0 163.0
429 393.0 172.0
430 357.0 483.0
431 544.0 73.0
432 304.0 201.0
433 862.0 138.0
434 705.0 290.0
435 146.0 118.0
436 46.0 340.0
437 492.0 150.0
438 294.0 63.0
439 530.0 821.0
440 28.0 520.0
441 726.0 758.0
442 246.0 147.0
443 587.0 531.0
444 377.0 395.0
445 171.0 120.0
446 174.0 668.0
447 880.0 112.0
448 697.0 494.0
449 389.0 682.0
450 361.0 578.0
451 194.0 807.0
452 233.0 177.0
453 494.0 870.0
454 504.0 113.0
455 146.0 76.0
456 504.0 10.0
457 787.0 890.0
458 707.0 663.0
459 571.0 786.0
460 525.0 785.0
461 196.0 641.0
462 234.0 658.0
463 491.0 851.0
464 314.0 737.0
465 305.0 306.0
466 402.0 524.0
467 381.0 497.0
468 545.0 347.0
469 520.0 265.0
470 226.0 519.0
471 601.0 441.0
472 718.0 378.0
473 826.0 873.0
474 171.0 113.0
475 492.0 397.0
476 225.0 300.0
477 323.0 699.0
478 150.0 500.0
479 535.0 213.0
480 285.0 665.0
481 797.0 56.0
482 717.0 379.0
483 512.0 398.0
484 61.0 847.0
485 164.0 874.0
486 502.0 335.0
487 423.0 20.0
488 601.0 295.0
489 443.0 631.0
490 874.0 703.0
491 896.0 80.0
492 244.0 610.0
493 694.0 734.0
494 691.0 783.0
495 228.0 175.0
496 62.0 438.0
497 324.0 199.0
498 152.0 238.0
499 358.0 145.0
500 150.0 4.0
501 680.0 652.0
502 421.0 833.0
503 778.0 838.0
504 812.0 252.0
505 815.0 12.0
506 686.0 450.0
507 380.0 497.0
508 595.0 60.0
509 242.0 679.0
510 373.0 410.0
511 41.0 173.0
512 451.0 691.0
513 83.0 831.0
514 137.0 380.0
515 221.0 210.0
516 135.0 787.0
517 22.0 793.0
518 886.0 880.0
519 773.0 324.0
520 895.0 473.0
521 898.0 474.0
522 589.0 130.0
523 557.0 863.0
524 38.0 709.0
525 187.0 511.0
526 797.0 286.0
527 675.0 116.0
528 312.0 325.0
529 210.0 44.0
530 454.0 589.0
531 187.0 170.0
532 187.0 236.0
533 827.0 184.0
534 199.0 870.0
535 876.0 509.0
536 30.0 375.0
537 420.0 465.0
538 841.0 628.0
539 698.0 614.0
540 274.0 423.0
541 802.0 596.0
542 647.0 669.0
543 583.0 342.0
544 363.0 800.0
545 667.0 267.0
546 620.0 93.0
547 346.0 808.0
548 527.0 700.0
549 609.0 706.0
550 159.0 469.0
551 688.0 637.0
552 776.0 154.0
553 855.0 797.0
554 277.0 782.0
555 596.0 61.0
556 281.0 883.0
557 890.0 447.0
558 289.0 412.0
559 773.0 570.0
560 721.0 792.0
561 621.0 148.0
562 23.0 267.0
563 333.0 512.0
564 656.0 338.0
565 266.0 759.0
566 554.0 488.0
567 335.0 572.0
568 683.0 228.0
569 318.0 290.0
570 60.0 631.0
571 43.0 488.0
572 323.0 807.0
573 876.0 142.0
574 439.0 827.0
575 458.0 837.0
576 105.0 150.0
577 658.0 7.0
578 643.0 412.0
579 32.0 681.0
580 328.0 413.0
581 868.0 461.0
582 511.0 649.0
583 353.0 549.0
584 136.0 150.0
585 383.0 319.0
586 388.0 187.0
587 176.0 794.0
588 289.0 417.0
589 759.0 323.0
590 637.0 150.0
591 359.0 363.0
592 580.0 433.0
593 96.0 73.0
594 320.0 403.0
595 156.0 172.0
596 139.0 86.0
597 222.0 437.0
598 657.0 860.0
599 98.0 475.0
600 15.0 228.0
601 743.0 776.0
602 332.0 324.0
603 778.0 536.0
604 222.0 780.0
605 11.0 297.0
606 491.0 446.0
607 476.0 210.0
608 410.0 207.0
609 517.0 234.0
610 233.0 873.0
611 529.0 414.0
612 365.0 646.0
613 793.0 443.0
614 87.0 105.0
615 506.0 385.0
616 25.0 792.0
617 668.0 723.0
618 685.0 148.0
619 398.0 65.0
620 535.0 455.0
621 494.0 644.0
622 433.0 56.0
623 299.0 736.0
624 799.0 678.0
625 417.0 771.0
626 348.0 507.0
627 865.0 658.0
628 721.0 37.0
629 723.0 582.0
630 764.0 355.0
631 69.0 634.0
632 699.0 178.0
633 860.0 182.0
634 813.0 795.0
635 593.0 72.0
636 708.0 487.0
637 309.0 710.0
638 815.0 150.0
639 232.0 685.0
640 486.0 724.0
641 198.0 791.0
642 805.0 188.0
643 323.0 605.0
644 6.0 141.0
645 271.0 702.0
646 589.0 158.0
647 816.0 153.0
648 805.0 899.0
649 362.0 666.0
650 65.0 215.0
651 183.0 630.0
652 639.0 385.0
653 523.0 489.0
654 357.0 210.0
655 31.0 517.0
656 576.0 409.0
657 24.0 694.0
658 194.0 415.0
659 680.0 301.0
660 850.0 438.0
661 774.0 892.0
662 139.0 433.0
663 294.0 425.0
664 402.0 230.0
665 826.0 158.0
666 113.0 277.0
667 590.0 658.0
668 463.0 211.0
669 343.0 777.0
670 281.0 123.0
671 327.0 423.0
672 441.0 308.0
673 168.0 892.0
674 210.0 579.0
675 873.0 632.0
676 592.0 820.0
677 546.0 886.0
678 860.0 688.0
679 733.0 896.0
680 89.0 887.0
681 411.0 118.0
682 506.0 341.0
683 157.0 125.0
684 466.0 894.0
685 385.0 36.0
686 154.0 365.0
687 828.0 637.0
688 469.0 164.0
689 823.0 338.0
690 311.0 76.0
691 738.0 449.0
692 772.0 256.0
693 891.0 563.0
694 399.0 640.0
695 350.0 465.0
696 649.0 17.0
697 698.0 73.0
698 241.0 519.0
699 442.0 346.0
700 208.0 275.0
701 422.0 455.0
702 242.0 518.0
703 657.0 730.0
704 631.0 208.0
705 354.0 381.0
706 137.0 320.0
707 106.0 40.0
708 316.0 582.0
709 288.0 126.0
710 514.0 375.0
711 805.0 176.0
712 237.0 125.0
713 405.0 137.0
714 357.0 205.0
715 775.0 802.0
716 10.0 900.0
717 34.0 736.0
718 255.0 365.0
719 828.0 169.0
720 191.0 862.0
721 641.0 161.0
722 365.0 46.0
723 59.0 570.0
724 755.0 164.0
725 371.0 874.0
726 226.0 432.0
727 334.0 79.0
728 199.0 858.0
729 189.0 292.0
730 60.0 791.0
731 276.0 585.0
732 373.0 790.0
733 63.0 304.0
734 267.0 241.0
735 104.0 420.0
736 5.0 353.0
737 508.0 620.0
738 317.0 35.0
739 511.0 459.0
740 224.0 601.0
741 802.0 127.0
742 493.0 228.0
743 78.0 856.0
744 491.0 685.0
745 734.0 552.0
746 63.0 36.0
747 710.0 394.0
748 402.0 577.0
749 878.0 123.0
750 484.0 99.0
751 121.0 323.0
752 354.0 266.0
753 724.0 530.0
754 454.0 229.0
755 234.0 808.0
756 319.0 862.0
757 413.0 320.0
758 545.0 9.0
759 706.0 245.0
760 724.0 319.0
761 184.0 45.0
762 298.0 252.0
763 557.0 399.0
764 271.0 12.0
765 416.0 680.0
766 755.0 356.0
767 63.0 334.0
768 234.0 20.0
769 433.0 712.0
770 674.0 798.0
771 665.0 668.0
772 845.0 311.0
773 103.0 41.0
774 435.0 408.0
775 664.0 40.0
776 707.0 55.0
777 811.0 402.0
778 710.0 383.0
779 853.0 824.0
780 409.0 594.0
781 423.0 40.0
782 579.0 175.0
783 601.0 94.0
784 18.0 289.0
785 571.0 402.0
786 364.0 290.0
787 756.0 870.0
788 818.0 221.0
789 213.0 413.0
790 10.0 879.0
791 319.0 653.0
792 624.0 529.0
793 669.0 241.0
794 22.0 871.0
795 809.0 200.0
796 521.0 288.0
797 573.0 831.0
798 391.0 321.0
799 496.0 558.0
800 502.0 753.0
801 624.0 552.0
802 737.0 175.0
803 560.0 760.0
804 451.0 622.0
805 777.0 387.0
806 804.0 409.0
807 481.0 262.0
808 665.0 165.0
809 651.0 66.0
810 325.0 115.0
811 642.0 791.0
812 317.0 384.0
813 21.0 38.0
814 421.0 654.0
815 72.0 655.0
816 657.0 707.0
817 621.0 520.0
818 187.0 780.0
819 354.0 804.0
820 208.0 343.0
821 855.0 827.0
822 593.0 76.0
823 482.0 879.0
824 655.0 394.0
825 285.0 728.0
826 691.0 887.0
827 182.0 438.0
828 623.0 638.0
829 796.0 271.0
830 493.0 641.0
831 896.0 701.0
832 415.0 773.0
833 207.0 282.0
834 69.0 508.0
835 297.0 756.0
836 35.0 158.0
837 705.0 819.0
838 872.0 362.0
839 863.0 90.0
840 771.0 575.0
841 405.0 255.0
842 410.0 454.0
843 58.0 175.0
844 839.0 395.0
845 155.0 416.0
846 529.0 239.0
847 492.0 40.0
848 440.0 279.0
849 759.0 315.0
850 372.0 635.0
851 712.0 706.0
852 321.0 417.0
853 863.0 236.0
854 330.0 311.0
855 695.0 631.0
856 857.0 835.0
857 865.0 171.0
858 108.0 409.0
859 208.0 81.0
860 724.0 62.0
861 748.0 564.0
862 697.0 278.0
863 425.0 187.0
864 116.0 303.0
865 813.0 846.0
866 296.0 581.0
867 73.0 402.0
868 61.0 376.0
869 808.0 576.0
870 338.0 290.0
871 107.0 819.0
872 147.0 755.0
873 295.0 740.0
874 114.0 602.0
875 113.0 103.0
876 255.0 612.0
877 608.0 485.0
878 388.0 87.0
879 421.0 483.0
880 681.0 312.0
881 117.0 457.0
882 614.0 338.0
883 605.0 805.0
884 160.0 602.0
885 230.0 652.0
886 21.0 536.0
887 287.0 768.0
888 379.0 776.0
889 399.0 772.0
890 241.0 825.0
891 186.0 3.0
892 399.0 628.0
893 637.0 437.0
894 293.0 430.0
895 287.0 810.0
896 233.0 778.0
897 126.0 650.0
898 726.0 520.0
899 803.0 727.0
900 192.0 437.0
EOF





